Problem:    
Rows:       100
Columns:    114 (90 integer, 50 binary)
Non-zeros:  330
Status:     INTEGER OPTIMAL
Objective:  obj = 3 (MINimum)

   No.   Row name        Activity     Lower bound   Upper bound
------ ------------    ------------- ------------- -------------
     1 ctr_0                       0                           0 
     2 ctr_1                     -13                           0 
     3 ctr_2                       0                           0 
     4 ctr_3                       0                           0 
     5 ctr_4                      -8                           0 
     6 ctr_5                       0                           0 
     7 ctr_6                       0                           0 
     8 ctr_7                       0                           0 
     9 ctr_8                       0                           0 
    10 ctr_9                     -26                           0 
    11 ctr_10                      5             5             = 
    12 ctr_11                      3             3             = 
    13 ctr_12                      1             1             = 
    14 ctr_13                      1             1             = 
    15 ctr_14                      0                           0 
    16 ctr_15                     -2                           0 
    17 ctr_16                      0                           0 
    18 ctr_17                      0                           0 
    19 ctr_18                      0                           0 
    20 ctr_19                      0                           0 
    21 ctr_20                      0                           0 
    22 ctr_21                      0                           0 
    23 ctr_22                      0                           0 
    24 ctr_23                      0                           0 
    25 ctr_24                      0                           0 
    26 ctr_25                      0                           0 
    27 ctr_26                      0                           0 
    28 ctr_27                      0                           0 
    29 ctr_28                      0                           0 
    30 ctr_29                      0                           0 
    31 ctr_30                      0                           0 
    32 ctr_31                      0                           0 
    33 ctr_32                      0                           0 
    34 ctr_33                     -2                           0 
    35 ctr_34                      0                           0 
    36 ctr_35                      0                           0 
    37 ctr_36                      0                           0 
    38 ctr_37                      0                           0 
    39 ctr_38                      0                           0 
    40 ctr_39                      0                           0 
    41 ctr_40                      0                           0 
    42 ctr_41                      0                           0 
    43 ctr_42                      0                           0 
    44 ctr_43                      0                           0 
    45 ctr_44                      0                           0 
    46 ctr_45                      0                           0 
    47 ctr_46                      0                           0 
    48 ctr_47                      0                           0 
    49 ctr_48                      0                           0 
    50 ctr_49                      0                           0 
    51 ctr_50                      0                           0 
    52 ctr_51                      0                           0 
    53 ctr_52                      0                           0 
    54 ctr_53                      0                           0 
    55 ctr_54                      0                           0 
    56 ctr_55                     -2                           0 
    57 ctr_56                      0                           0 
    58 ctr_57                      0                           0 
    59 ctr_58                     -4                           0 
    60 ctr_59                      0                           0 
    61 ctr_60                      0                           0 
    62 ctr_61                      0                           0 
    63 ctr_62                      0                           0 
    64 ctr_63                     -4                           0 
    65 ctr_64                      0                           0 
    66 ctr_65                      0                           0 
    67 ctr_66                      0                           0 
    68 ctr_67                      0                           0 
    69 ctr_68                      0                           0 
    70 ctr_69                      0                           0 
    71 ctr_70                      0                           0 
    72 ctr_71                      0                           0 
    73 ctr_72                      0                           0 
    74 ctr_73                     -2                           0 
    75 ctr_74                      0                           0 
    76 ctr_75                      0                           0 
    77 ctr_76                      0                           0 
    78 ctr_77                      0                           0 
    79 ctr_78                     -4                           0 
    80 ctr_79                      0                           0 
    81 ctr_80                      0                           0 
    82 ctr_81                      0                           0 
    83 ctr_82                      0                           0 
    84 ctr_83                      0                           0 
    85 ctr_84                      0                           0 
    86 ctr_85                      0                           0 
    87 ctr_86                      0                           0 
    88 ctr_87                      0                           0 
    89 ctr_88                     -4                           0 
    90 ctr_89                      0                           0 
    91 ctr_90                      0                           0 
    92 ctr_91                      0                           0 
    93 ctr_92                      0                           0 
    94 ctr_93                      0                           0 
    95 ctr_94                      3                          10 
    96 ctr_95                      1                          10 
    97 ctr_96                      1                           1 
    98 ctr_97                      1                          10 
    99 ctr_98                      0                           1 
   100 ctr_99                      1                           1 

   No. Column name       Activity     Lower bound   Upper bound
------ ------------    ------------- ------------- -------------
     1 z_0          *              0             0             1 
     2 z_1          *              1             0             1 
     3 z_2          *              0             0             1 
     4 z_3          *              0             0             1 
     5 z_4          *              1             0             1 
     6 z_5          *              0             0             1 
     7 z_6          *              0             0             1 
     8 z_7          *              0             0             1 
     9 z_8          *              0             0             1 
    10 z_9          *              1             0             1 
    11 x_0_0        *              0             0               
    12 x_0_1        *              0             0               
    13 x_0_2        *              0             0               
    14 x_0_3        *              0             0               
    15 x_1_0        *              3             0               
    16 x_1_1        *              0             0               
    17 x_1_2        *              0             0               
    18 x_1_3        *              0             0               
    19 x_2_0        *              0             0               
    20 x_2_1        *              0             0               
    21 x_2_2        *              0             0               
    22 x_2_3        *              0             0               
    23 x_3_0        *              0             0               
    24 x_3_1        *              0             0               
    25 x_3_2        *              0             0               
    26 x_3_3        *              0             0               
    27 x_4_0        *              1             0               
    28 x_4_1        *              0             0               
    29 x_4_2        *              1             0               
    30 x_4_3        *              1             0               
    31 x_5_0        *              0             0               
    32 x_5_1        *              0             0               
    33 x_5_2        *              0             0               
    34 x_5_3        *              0             0               
    35 x_6_0        *              0             0               
    36 x_6_1        *              0             0               
    37 x_6_2        *              0             0               
    38 x_6_3        *              0             0               
    39 x_7_0        *              0             0               
    40 x_7_1        *              0             0               
    41 x_7_2        *              0             0               
    42 x_7_3        *              0             0               
    43 x_8_0        *              0             0               
    44 x_8_1        *              0             0               
    45 x_8_2        *              0             0               
    46 x_8_3        *              0             0               
    47 x_9_0        *              1             0               
    48 x_9_1        *              3             0               
    49 x_9_2        *              0             0               
    50 x_9_3        *              0             0               
    51 y_0_0        *              0             0             1 
    52 y_1_0        *              1             0             1 
    53 y_2_0        *              0             0             1 
    54 y_3_0        *              0             0             1 
    55 y_4_0        *              1             0             1 
    56 y_5_0        *              0             0             1 
    57 y_6_0        *              0             0             1 
    58 y_7_0        *              0             0             1 
    59 y_8_0        *              0             0             1 
    60 y_9_0        *              1             0             1 
    61 y_0_1        *              0             0             1 
    62 y_1_1        *              0             0             1 
    63 y_2_1        *              0             0             1 
    64 y_3_1        *              0             0             1 
    65 y_4_1        *              0             0             1 
    66 y_5_1        *              0             0             1 
    67 y_6_1        *              0             0             1 
    68 y_7_1        *              0             0             1 
    69 y_8_1        *              0             0             1 
    70 y_9_1        *              1             0             1 
    71 y_0_2        *              0             0             1 
    72 y_1_2        *              0             0             1 
    73 y_2_2        *              0             0             1 
    74 y_3_2        *              0             0             1 
    75 y_4_2        *              1             0             1 
    76 y_5_2        *              0             0             1 
    77 y_6_2        *              0             0             1 
    78 y_7_2        *              0             0             1 
    79 y_8_2        *              0             0             1 
    80 y_9_2        *              0             0             1 
    81 y_0_3        *              0             0             1 
    82 y_1_3        *              0             0             1 
    83 y_2_3        *              0             0             1 
    84 y_3_3        *              0             0             1 
    85 y_4_3        *              1             0             1 
    86 y_5_3        *              0             0             1 
    87 y_6_3        *              0             0             1 
    88 y_7_3        *              0             0             1 
    89 y_8_3        *              0             0             1 
    90 y_9_3        *              0             0             1 
    91 y_0_4                       0             0               
    92 y_3_4                       0             0               
    93 y_0_5                       0             0               
    94 y_3_5                       0             0               
    95 y_0_6                       0             0               
    96 y_3_6                       0             0               
    97 y_0_7                       0             0               
    98 y_3_7                       0             0               
    99 y_0_8                       0             0               
   100 y_3_8                       0             0               
   101 y_0_9                       0             0               
   102 y_3_9                       0             0               
   103 y_1_4                       0             0               
   104 y_2_4                       0             0               
   105 y_1_5                       0             0               
   106 y_2_5                       0             0               
   107 y_1_6                       0             0               
   108 y_2_6                       0             0               
   109 y_1_7                       0             0               
   110 y_2_7                       0             0               
   111 y_1_8                       0             0               
   112 y_2_8                       0             0               
   113 y_1_9                       0             0               
   114 y_2_9                       0             0               

Integer feasibility conditions:

KKT.PE: max.abs.err = 0.00e+00 on row 0
        max.rel.err = 0.00e+00 on row 0
        High quality

KKT.PB: max.abs.err = 0.00e+00 on row 0
        max.rel.err = 0.00e+00 on row 0
        High quality

End of output
